(declare-const a Real)
(declare-const b Real)
(declare-const c Real)
(assert (= (+ a b c) (+ (pow a -1) (pow b -1) (pow c -1))))
(assert (> a 0))
(assert (> b 0))
(assert (> c 0))
(assert (not (<= (+ (/ -3 16) (pow (+ (* 3 (pow (+ a b (* 2 c)) -4)) (* 3 (pow (+ a c (* 2 b)) -4)) (* 3 (pow (+ b c (* 2 a)) -4))) (/ 1 2))) 0)))
(check-sat)
(get-model)
(exit)